GLPSOL: GLPK LP/MIP Solver, v4.55
Parameter(s) specified in the command line:
 -m tmp.mod
Reading model section from tmp.mod...
Reading data section from tmp.mod...
3915 lines were read
Generating obj...
Generating kirhoff...
Generating init_charge...
Generating batt_size...
Model has been successfully generated
GLPK Simplex Optimizer, v4.55
5286 rows, 6754 columns, 14218 non-zeros
Preprocessing...
3524 rows, 6613 columns, 13947 non-zeros
Scaling...
 A: min|aij| =  1.000e+00  max|aij| =  1.000e+00  ratio =  1.000e+00
Problem data seem to be well scaled
Constructing initial basis...
Size of triangular part is 2812
      0: obj =   0.000000000e+00  infeas =  5.102e+03 (712)
    500: obj =   9.800000000e+01  infeas =  6.210e+02 (603)
*   942: obj =   2.290000000e+02  infeas =  0.000e+00 (546)
*  1000: obj =   2.010000000e+02  infeas =  0.000e+00 (545)
*  1025: obj =   1.810000000e+02  infeas =  0.000e+00 (545)
OPTIMAL LP SOLUTION FOUND
Time used:   0.2 secs
Memory used: 13.9 Mb (14541511 bytes)
#OUTPUT:
181
-98 -71 -2 -76 0 8 -7 6 0 2 0 -9 -7 1 -7 -2 2 -3 0 -1 -6 0 0 0 -2 -2 3 0 -76 0 -1 10 0 0 0 -7 0 0 0 -5 -2 6 0 2 0 0 0 2 0 0 -2 0 0 0 0 0 0 0 -3 0 -9 0 0 0 0 0 -4 0 0 1 0 0 0 0 -3 0 0 6 0 0 0 0 0 0 4 0 1 0 0 1 9 0 0 0 0 0 0 0 0 7 0 0 0 0 -8 0 -1 0 -13 0 0 0 0 0 0 0 0 0 0 1 0 0 0 0 0 0 0 0 0 10 0 0 0 0 0 0 -4 0 0 0 -1 0 0 0 0 0 0 0 0 0 0 0 0 3 0 -7 0 0 0 8 0 0 0 0 0 0 0 0 0 -2 0 0 8 0 0 0 -7 0 0 -2 0 0 4 0 0 0 0 0 0 0 0 0 0 -7 0 0 0 0 0 0 95 -13 0 0 0 0 0 0 0 0 0 0 0 0 0 -3 0 0 0 0 0 6 0 0 -3 0 0 0 0 0 -10 0 0 0 2 0 3 0 0 -3 0 0 0 0 -2 0 0 -4 0 -1 0 -7 0 0 2 0 0 0 0 0 4 0 0 0 -3 6 2 -8 0 2 -4 0 0 0 0 0 0 0 0 -98 13 0 0 0 0 -6 3 10 0 -2 3 -3 0 0 -3 0 0 3 0 0 0 0 0 0 0 0 0 0 0 0 0 0 0 0 0 0 0 0 0 0 0 0 0 0 0 0 0 0 0 0 0 0 0 0 0 0 0 0 0 0 0 0 0 0 0 0 0 0 0 0 0 0 0 0 0 0 0 0 0 0 0 0 0 0 0 0 0 0 0 0 0 0 0 0 0 0 0 0 0 0 0 0 0 0 
-5 -51 -6 0 -22 -1 -73 -1 -4 0 0 -9 -3 -4 -3 -2 2 0 -22 0 0 0 0 0 0 0 -14 0 0 0 0 0 0 0 0 0 0 -22 0 0 -5 0 0 0 0 0 0 2 0 0 0 0 0 0 0 0 0 -22 0 0 -9 0 -4 0 0 0 -4 0 0 0 0 0 0 0 -5 0 0 0 0 0 0 0 0 0 0 0 0 0 0 0 0 0 0 0 0 0 0 -22 0 0 0 0 0 0 0 0 0 0 -30 -39 0 0 0 0 0 0 0 0 0 0 -2 0 -39 -22 0 0 0 0 0 0 0 0 0 0 0 0 0 0 0 0 0 0 0 0 0 0 0 0 0 0 0 0 0 0 0 -10 0 0 0 0 0 0 0 0 0 0 0 0 0 0 0 0 0 0 0 0 -9 0 -5 1 0 0 0 0 0 0 0 0 0 9 0 0 0 -9 0 0 0 0 0 0 0 -30 0 0 0 0 0 0 0 0 0 -5 0 0 0 -5 0 0 0 0 0 0 0 0 0 0 0 0 0 0 0 0 0 0 0 0 -14 0 -11 0 0 0 0 0 -2 0 0 -4 0 0 0 0 0 0 0 -4 0 0 0 0 0 0 0 0 0 0 0 0 0 -1 0 -9 0 0 0 0 0 0 0 -5 30 0 5 0 0 0 0 0 0 0 0 0 0 19 -5 -2 0 0 0 0 0 0 0 0 0 0 0 0 0 0 0 0 0 0 0 0 0 0 0 0 0 0 0 0 0 0 0 0 0 0 0 0 0 0 0 0 0 0 0 0 0 0 0 0 0 0 0 0 0 0 0 0 0 0 0 0 0 0 0 0 0 0 0 0 0 0 0 0 0 0 0 0 0 0 0 0 0 0 0 0 0 0 0 0 
-4 -5 0 0 -5 0 -44 0 0 0 0 -9 0 0 0 0 0 0 0 0 0 0 0 0 0 0 0 0 0 0 0 0 0 0 0 -56 0 -33 -4 -56 0 0 0 0 0 0 0 0 0 0 0 0 0 0 0 0 0 -33 0 0 -9 0 0 0 0 0 0 0 0 0 0 0 0 -59 0 5 0 0 0 0 0 0 0 0 -5 0 0 0 4 0 0 0 0 0 0 0 0 0 0 0 0 0 0 -4 0 0 0 0 0 -11 0 0 0 0 0 0 0 0 0 0 0 0 -11 0 0 0 0 0 0 0 0 0 0 0 0 0 -56 0 0 0 0 0 0 0 0 5 0 0 0 0 0 0 0 0 0 -9 0 0 0 0 0 0 0 0 0 0 0 0 0 0 0 0 0 0 0 0 0 0 5 0 0 0 0 0 0 0 0 -61 0 0 0 0 0 0 0 0 0 0 0 0 0 0 0 0 0 0 0 0 0 0 0 5 0 0 0 0 0 0 0 0 0 0 0 0 0 0 0 0 0 0 0 0 0 0 0 0 0 0 0 0 0 0 0 0 0 0 0 0 0 0 0 0 4 0 0 0 0 0 0 0 56 0 -5 0 0 0 0 0 0 0 0 0 0 0 0 0 0 0 0 0 0 0 -5 0 0 0 0 0 0 0 0 0 0 0 0 0 0 0 0 0 0 0 0 0 0 0 0 0 0 0 0 0 0 0 0 0 0 0 0 0 0 0 0 0 0 0 0 0 0 0 0 0 0 0 0 0 0 0 0 0 0 0 0 0 0 0 0 0 0 0 0 0 0 0 0 0 0 0 0 0 0 0 0 0 0 0 0 0 0 0 0 0 0 0 0 0 0 0 0 0 0 0 0 0 
-98 -63 -47 0 -10 -4 -46 0 -47 0 0 -9 -3 0 0 0 0 0 -5 0 0 0 0 0 0 0 0 0 0 0 0 0 0 0 0 -46 0 -17 -1 -46 0 0 -1 0 0 0 0 0 0 0 -51 0 0 0 0 0 0 -17 0 0 -9 0 -47 0 -3 0 0 0 0 0 0 0 0 0 0 5 0 0 0 0 0 -3 0 0 46 0 0 0 0 0 0 0 0 0 0 0 0 -5 -4 0 0 0 0 0 0 0 0 0 0 0 0 0 0 0 0 0 0 0 0 0 -2 0 0 -5 0 0 0 -1 0 0 0 0 0 0 0 0 -46 0 0 0 0 0 0 0 0 5 0 0 0 0 0 0 0 0 0 -9 0 0 0 0 0 0 0 0 0 0 0 0 0 0 0 0 0 -48 0 0 0 0 0 0 0 0 0 0 0 0 0 0 0 26 0 0 0 0 0 0 0 0 0 0 97 0 0 0 0 0 0 0 0 0 0 0 0 0 0 0 0 0 0 0 0 0 0 0 0 0 0 0 0 0 0 0 0 0 0 0 0 0 -26 0 0 0 0 0 0 0 0 0 0 0 4 0 0 0 0 1 0 -4 0 0 46 0 -5 0 0 0 0 0 0 0 0 -26 0 0 0 0 0 0 0 -97 0 0 0 0 0 0 0 0 0 0 0 0 0 0 0 -2 -5 0 0 0 0 0 0 0 0 0 0 0 0 0 0 0 0 0 0 0 0 0 0 0 0 0 0 0 0 0 0 0 0 0 0 0 0 0 0 0 0 0 0 0 0 0 0 0 0 0 0 0 0 0 0 0 0 0 0 0 0 0 0 0 0 0 0 0 0 0 0 0 0 0 0 0 0 0 0 0 0 0 0 0 0 0 0 0 
-5 -62 2 0 0 -2 -64 0 0 0 0 -2 0 0 0 2 0 0 0 0 0 0 0 0 0 0 -60 0 0 0 0 0 0 0 0 0 0 -25 0 0 0 0 0 0 0 0 0 0 0 0 0 0 0 0 0 0 0 -25 0 0 -2 0 0 0 0 0 0 0 0 0 0 0 0 0 0 0 0 0 0 0 0 0 0 0 0 0 0 -2 0 0 0 0 0 0 0 0 0 0 0 0 -3 0 0 0 0 0 0 0 0 -39 0 0 0 0 0 0 0 0 0 0 -2 0 -39 3 0 0 0 0 0 0 0 0 0 0 0 0 0 0 0 0 0 0 0 0 0 0 -5 0 0 0 0 0 0 0 0 -2 0 0 0 0 0 0 0 0 0 0 0 0 0 0 0 0 0 0 0 0 0 0 0 0 0 0 0 0 0 0 3 0 0 0 0 0 0 0 5 -3 0 0 0 0 0 0 0 0 0 0 0 0 0 0 0 0 0 0 0 0 0 0 0 0 0 0 0 0 0 0 0 0 0 0 0 0 0 0 0 0 -60 0 2 0 0 0 0 0 0 0 0 0 0 0 0 0 0 0 0 0 0 0 -3 0 0 0 0 0 0 0 0 0 0 0 0 0 0 0 -5 0 3 0 0 0 0 0 0 0 0 0 0 0 0 0 0 0 0 -19 0 -2 -3 0 0 0 0 0 0 0 0 0 0 0 0 0 0 0 0 0 0 0 0 0 0 0 0 0 0 0 0 0 0 0 0 0 0 0 0 0 0 0 0 0 0 0 0 0 0 0 0 0 0 0 0 0 0 0 0 0 0 0 0 0 0 0 0 0 0 0 0 0 0 0 0 0 0 0 0 0 0 0 0 0 0 0 0 0 0 0 
0 -61 -2 -7 -22 0 -2 0 -4 0 0 0 0 0 0 2 0 0 -26 0 0 0 0 0 0 0 -28 0 -7 0 0 -7 0 0 0 0 0 0 0 0 0 0 0 0 0 0 0 0 0 0 0 0 0 0 0 0 0 0 0 0 0 0 -4 0 0 0 0 0 0 0 0 0 0 0 0 0 0 0 0 0 0 0 0 0 0 0 0 0 0 0 0 0 0 0 0 0 0 -26 0 0 0 0 0 0 0 0 0 0 0 0 0 0 0 0 0 0 0 0 0 0 -2 0 0 -26 0 0 0 0 0 0 0 0 0 0 0 0 0 0 0 0 0 0 0 0 0 0 0 0 0 0 0 0 0 0 0 0 0 0 0 0 0 0 0 0 0 0 0 0 0 0 0 0 0 0 4 0 0 0 0 0 0 0 0 0 0 4 0 0 0 2 0 0 0 0 0 0 0 0 0 0 0 0 0 0 0 0 0 0 0 0 0 0 0 0 0 0 0 0 0 0 0 0 0 0 0 0 0 0 0 0 0 0 0 0 0 0 -28 0 0 0 0 0 0 0 0 0 0 0 0 0 0 0 0 0 0 -4 0 0 0 0 0 0 0 0 0 0 0 0 0 0 0 -2 0 0 0 0 0 0 0 0 0 0 0 0 0 0 0 0 0 0 0 0 0 28 0 -2 0 0 0 0 0 0 0 0 0 0 0 0 0 0 0 0 0 0 0 0 0 0 0 0 0 0 0 0 0 0 0 0 0 0 0 0 0 0 0 0 0 0 0 0 0 0 0 0 0 0 0 0 0 0 0 0 0 0 0 0 0 0 0 0 0 0 0 0 0 0 0 0 0 0 0 0 0 0 0 0 0 0 0 0 0 0 0 0 
0 -71 0 -20 -22 -2 0 0 -4 -2 0 0 -3 0 0 2 0 -1 -33 0 0 0 -20 0 0 0 -26 -20 0 0 0 0 0 0 0 -7 0 5 0 -7 0 0 0 2 0 0 0 0 -75 0 0 0 0 0 0 0 0 5 1 0 0 0 -4 0 -2 0 0 0 0 0 0 0 1 0 0 -5 2 0 0 0 0 -2 0 0 7 0 0 0 0 0 0 0 0 0 0 0 0 -33 0 0 5 -75 0 0 0 0 0 0 0 0 0 0 0 0 -99 0 0 0 0 0 0 0 0 61 0 0 0 0 0 0 0 0 0 0 0 0 -7 0 0 0 0 0 -2 0 0 -5 0 0 0 0 0 0 0 0 0 0 0 0 0 0 0 0 0 0 0 0 -2 -2 0 0 0 0 0 0 81 0 0 0 -5 0 0 0 0 0 0 77 -3 0 0 2 0 0 0 0 0 5 0 0 0 0 0 0 0 0 0 0 0 0 0 0 0 -5 0 0 0 0 0 0 0 0 20 0 0 0 0 0 0 0 0 0 0 0 0 0 0 0 -26 0 0 0 0 0 0 0 0 0 -1 0 0 0 0 0 0 0 0 -4 0 0 5 0 7 0 5 0 0 0 0 0 -4 0 0 -2 0 0 0 -2 -3 0 0 0 0 0 5 0 -20 0 0 0 0 0 0 0 -2 28 0 0 5 0 0 0 0 0 0 0 0 0 0 0 0 0 0 0 0 0 0 0 0 0 0 0 0 0 0 0 0 0 0 0 0 0 0 0 0 0 0 0 0 0 0 0 0 0 0 0 0 0 0 0 0 0 0 0 0 0 0 0 0 0 0 0 0 0 0 0 0 0 0 0 0 0 0 0 0 0 0 0 0 0 0 0 0 0 0 0 
0 0 0 0 0 -2 0 -2 0 0 0 -3 0 0 0 0 0 0 0 0 0 0 0 0 0 0 2 0 0 0 0 0 0 0 0 0 0 0 0 0 0 0 0 0 0 0 0 0 0 0 0 0 0 0 0 0 0 0 0 0 -3 0 0 0 0 0 0 0 0 0 0 0 0 0 0 0 0 0 0 0 0 0 0 0 0 0 0 0 0 0 0 0 0 0 0 0 0 0 0 0 0 0 0 0 0 0 0 0 0 0 0 0 0 0 0 0 0 0 0 0 0 0 0 0 0 0 0 0 0 0 0 0 0 0 0 0 0 0 0 0 0 0 0 0 0 0 0 0 0 0 0 0 0 0 0 -5 0 0 0 0 0 0 0 0 0 0 0 0 0 0 0 0 0 0 0 0 0 0 -2 2 0 0 0 0 0 0 0 0 0 0 0 0 0 0 0 0 -25 0 0 0 0 0 0 0 0 0 0 0 0 0 0 -2 0 0 0 0 0 0 0 0 0 0 0 0 0 0 0 0 0 0 0 0 0 0 0 0 2 0 0 0 0 0 0 0 0 0 0 0 0 0 0 0 0 0 0 0 0 0 0 0 0 0 0 0 0 0 0 0 0 -2 0 0 0 0 0 0 0 0 0 0 0 0 2 0 0 0 0 0 0 0 0 0 0 -2 0 0 0 0 0 0 0 0 0 0 0 0 0 0 0 0 0 0 0 0 0 0 0 0 0 0 0 0 0 0 0 0 0 0 0 0 0 0 0 0 0 0 0 0 0 0 0 0 0 0 0 0 0 0 0 0 0 0 0 0 0 0 0 0 0 0 0 0 0 0 0 0 0 0 0 0 0 0 0 0 0 0 0 0 0 0 0 0 0 0 
#OUTPUT END
Model has been successfully processed
